db/data/2625049628805138752780529040943121234.z3.out
sat
-------------------
1377.694688726
